c generated by sgen
p cnf 113 236
-2 -3 -4 0
-1 -3 -4 0
-1 -2 -4 0
-1 -2 -3 0
-6 -7 -8 0
-5 -7 -8 0
-5 -6 -8 0
-5 -6 -7 0
-10 -11 -12 0
-9 -11 -12 0
-9 -10 -12 0
-9 -10 -11 0
-14 -15 -16 0
-13 -15 -16 0
-13 -14 -16 0
-13 -14 -15 0
-18 -19 -20 0
-17 -19 -20 0
-17 -18 -20 0
-17 -18 -19 0
-22 -23 -24 0
-21 -23 -24 0
-21 -22 -24 0
-21 -22 -23 0
-26 -27 -28 0
-25 -27 -28 0
-25 -26 -28 0
-25 -26 -27 0
-30 -31 -32 0
-29 -31 -32 0
-29 -30 -32 0
-29 -30 -31 0
-34 -35 -36 0
-33 -35 -36 0
-33 -34 -36 0
-33 -34 -35 0
-38 -39 -40 0
-37 -39 -40 0
-37 -38 -40 0
-37 -38 -39 0
-42 -43 -44 0
-41 -43 -44 0
-41 -42 -44 0
-41 -42 -43 0
-46 -47 -48 0
-45 -47 -48 0
-45 -46 -48 0
-45 -46 -47 0
-50 -51 -52 0
-49 -51 -52 0
-49 -50 -52 0
-49 -50 -51 0
-54 -55 -56 0
-53 -55 -56 0
-53 -54 -56 0
-53 -54 -55 0
-58 -59 -60 0
-57 -59 -60 0
-57 -58 -60 0
-57 -58 -59 0
-62 -63 -64 0
-61 -63 -64 0
-61 -62 -64 0
-61 -62 -63 0
-66 -67 -68 0
-65 -67 -68 0
-65 -66 -68 0
-65 -66 -67 0
-70 -71 -72 0
-69 -71 -72 0
-69 -70 -72 0
-69 -70 -71 0
-74 -75 -76 0
-73 -75 -76 0
-73 -74 -76 0
-73 -74 -75 0
-78 -79 -80 0
-77 -79 -80 0
-77 -78 -80 0
-77 -78 -79 0
-82 -83 -84 0
-81 -83 -84 0
-81 -82 -84 0
-81 -82 -83 0
-86 -87 -88 0
-85 -87 -88 0
-85 -86 -88 0
-85 -86 -87 0
-90 -91 -92 0
-89 -91 -92 0
-89 -90 -92 0
-89 -90 -91 0
-94 -95 -96 0
-93 -95 -96 0
-93 -94 -96 0
-93 -94 -95 0
-98 -99 -100 0
-97 -99 -100 0
-97 -98 -100 0
-97 -98 -99 0
-102 -103 -104 0
-101 -103 -104 0
-101 -102 -104 0
-101 -102 -103 0
-106 -107 -108 0
-105 -107 -108 0
-105 -106 -108 0
-105 -106 -107 0
-109 -110 -111 0
-109 -110 -112 0
-109 -110 -113 0
-109 -111 -112 0
-109 -111 -113 0
-109 -112 -113 0
-110 -111 -112 0
-110 -111 -113 0
-110 -112 -113 0
-111 -112 -113 0
102 35 51 0
45 35 51 0
45 102 51 0
45 102 35 0
74 67 53 0
43 67 53 0
43 74 53 0
43 74 67 0
83 40 8 0
90 40 8 0
90 83 8 0
90 83 40 0
38 47 2 0
99 47 2 0
99 38 2 0
99 38 47 0
22 80 70 0
63 80 70 0
63 22 70 0
63 22 80 0
57 81 76 0
79 81 76 0
79 57 76 0
79 57 81 0
18 104 110 0
28 104 110 0
28 18 110 0
28 18 104 0
75 4 89 0
87 4 89 0
87 75 89 0
87 75 4 0
12 6 33 0
27 6 33 0
27 12 33 0
27 12 6 0
42 17 11 0
50 17 11 0
50 42 11 0
50 42 17 0
85 62 105 0
59 62 105 0
59 85 105 0
59 85 62 0
7 23 93 0
44 23 93 0
44 7 93 0
44 7 23 0
68 16 24 0
107 16 24 0
107 68 24 0
107 68 16 0
95 101 71 0
106 101 71 0
106 95 71 0
106 95 101 0
55 46 113 0
108 46 113 0
108 55 113 0
108 55 46 0
26 64 52 0
3 64 52 0
3 26 52 0
3 26 64 0
19 32 97 0
66 32 97 0
66 19 97 0
66 19 32 0
54 60 98 0
72 60 98 0
72 54 98 0
72 54 60 0
69 30 25 0
14 30 25 0
14 69 25 0
14 69 30 0
34 21 56 0
20 21 56 0
20 34 56 0
20 34 21 0
13 5 88 0
103 5 88 0
103 13 88 0
103 13 5 0
82 9 1 0
96 9 1 0
96 82 1 0
96 82 9 0
36 86 31 0
37 86 31 0
37 36 31 0
37 36 86 0
91 112 58 0
29 112 58 0
29 91 58 0
29 91 112 0
15 41 84 0
111 41 84 0
111 15 84 0
111 15 41 0
100 92 94 0
77 92 94 0
77 100 94 0
77 100 92 0
78 49 65 0
39 49 65 0
39 78 65 0
39 78 49 0
48 61 109 0
48 61 73 0
48 61 10 0
48 109 73 0
48 109 10 0
48 73 10 0
61 109 73 0
61 109 10 0
61 73 10 0
109 73 10 0
